c description: Random 3-CNF over 19 variables and 81 clauses
c generator: CNFgen (0.9.2)
c copyright: (C) 2012-2022 Massimo Lauria <massimo.lauria@uniroma1.it>
c url: https://massimolauria.net/cnfgen
c command line: cnfgen --output CNF_4.28/19_bit_81_169.cnf randkcnf 3 19 81
c
p cnf 19 81
5 13 -19 0
-4 -7 14 0
1 -3 -4 0
-12 14 -18 0
-13 -18 19 0
-4 6 13 0
-8 -11 14 0
2 5 -14 0
2 6 -13 0
-11 13 16 0
-8 11 14 0
2 -12 15 0
1 2 -18 0
3 -4 -11 0
3 -18 19 0
-7 8 12 0
-2 -3 -14 0
-9 17 19 0
-2 -9 -12 0
1 -7 15 0
-4 6 12 0
-2 5 -7 0
-2 5 17 0
10 18 -19 0
7 13 19 0
5 7 -11 0
-2 -15 16 0
-4 -6 -15 0
1 6 8 0
-9 10 -17 0
4 16 -17 0
4 -10 -19 0
1 3 6 0
8 -9 12 0
-10 -11 -12 0
7 -12 -14 0
10 -12 -15 0
-3 -6 14 0
2 -3 8 0
2 -4 12 0
-3 -13 19 0
-7 -12 -15 0
4 -11 14 0
5 -14 -16 0
6 -7 -16 0
-6 -12 16 0
-1 -5 -6 0
8 13 17 0
4 -7 15 0
-8 10 -19 0
4 7 14 0
-3 10 -15 0
12 13 15 0
4 -11 19 0
-4 12 -19 0
-3 -6 -11 0
-6 7 -19 0
-10 14 -15 0
4 10 16 0
7 12 -15 0
-13 -14 15 0
-3 -13 -17 0
2 -12 -15 0
-4 -13 -17 0
6 -12 -17 0
-1 -3 -16 0
2 -4 -13 0
10 -12 16 0
2 8 -16 0
-4 -7 -18 0
-7 -11 -19 0
2 15 -17 0
8 9 -15 0
2 -9 18 0
-2 3 -17 0
-13 15 17 0
7 13 -18 0
-3 8 -17 0
-3 4 -11 0
3 8 -13 0
1 -2 -8 0
